0 307 475
1 91 30
2 798 53
3 160 27
4 52 156
5 432 35
6 52 350
7 616 529
8 445 184
9 622 168
10 78 648
11 391 892
12 177 35
13 581 394
14 168 123
15 131 59
16 5 36
17 127 36
18 63 111
19 6 50
20 87 177
21 130 131
22 440 26
23 150 58
24 97 54
25 135 312
26 61 76
27 222 328
28 553 759
29 247 240
30 49 34
31 1 599
32 194 117
33 205 277
34 4 13
35 719 57
36 182 120
37 257 332
38 431 295
39 729 565
40 145 342
41 774 61
42 103 4
43 171 312
44 6 562
45 17 428
46 220 0
47 551 108
48 347 628
49 304 169
50 296 269
51 31 113
52 6 204
53 19 241
54 521 687